
Gurobi 6.5.2 (linux64) logging started Sun Sep 18 18:41:19 2016


Gurobi 6.5.2 (linux64) logging started Sun Sep 18 18:41:19 2016

Optimize a model with 101 rows, 663 columns and 1345 nonzeros
Coefficient statistics:
  Matrix range    [1e+00, 2e+00]
  Objective range [1e+00, 1e+02]
  Bounds range    [1e+00, 1e+00]
  RHS range       [1e+00, 1e+00]
Presolve removed 42 rows and 33 columns
Presolve time: 0.00s
Presolved: 59 rows, 630 columns, 1265 nonzeros
Variable types: 0 continuous, 630 integer (630 binary)

Root relaxation: objective 7.400000e+02, 62 iterations, 0.00 seconds

    Nodes    |    Current Node    |     Objective Bounds      |     Work
 Expl Unexpl |  Obj  Depth IntInf | Incumbent    BestBd   Gap | It/Node Time

     0     0  740.00000    0    8          -  740.00000      -     -    0s
     0     0  763.25000    0   10          -  763.25000      -     -    0s
     0     0  763.33333    0   10          -  763.33333      -     -    0s
     0     0  763.33333    0   10          -  763.33333      -     -    0s
     0     2  763.33333    0   10          -  763.33333      -     -    0s
H  374   204                     994.0000000  766.00000  22.9%   5.5    0s
*  385   207              63     992.0000000  766.00000  22.8%   5.5    0s
*  532   348              60     981.0000000  767.50000  21.8%   5.9    0s
*  563   245              18     832.0000000  767.50000  7.75%   5.8    0s
*  730   195              13     817.0000000  767.62500  6.04%   5.5    0s
*  732   185              12     815.0000000  767.62500  5.81%   5.5    0s
*  894   181               7     811.0000000  769.00000  5.18%   5.4    0s
H 1013   121                     807.0000000  774.00000  4.09%   5.4    0s
H 1079   114                     805.0000000  776.50000  3.54%   5.3    0s

Cutting planes:
  Cover: 16
  MIR: 1
  Lazy constraints: 104

Explored 1333 nodes (6968 simplex iterations) in 0.20 seconds
Thread count was 8 (of 8 available processors)

Optimal solution found (tolerance 1.00e-04)
Best objective 8.050000000000e+02, best bound 8.050000000000e+02, gap 0.0%
